sat-competition-2018/orders/benchmarks-theta/cms-scheel-sha3-chi-identity-w1-rt-o3.cnf
c This is a CNF SAT formula in the DIMACS CNF format,
c produced with the bc2cnf translator by Tommi Junttila;
c see http://users.ics.aalto.fi/tjunttil/circuits/index.html
c cidentity <-> 1
c h1out24 <-> 28
c h1r2t24 <-> 28
c h1out23 <-> 29
c h1r2t23 <-> 29
c h1out22 <-> 30
c h1r2t22 <-> 30
c h1out21 <-> 31
c h1r2t21 <-> 31
c h1out20 <-> 32
c h1r2t20 <-> 32
c h1out19 <-> 33
c h1r2t19 <-> 33
c h1out18 <-> 34
c h1r2t18 <-> 34
c h1out17 <-> 35
c h1r2t17 <-> 35
c h1out16 <-> 36
c h1r2t16 <-> 36
c h1out15 <-> 37
c h1r2t15 <-> 37
c h1out14 <-> 38
c h1r2t14 <-> 38
c h1out13 <-> 39
c h1r2t13 <-> 39
c h1out12 <-> 40
c h1r2t12 <-> 40
c h1out11 <-> 41
c h1r2t11 <-> 41
c h1out10 <-> 42
c h1r2t10 <-> 42
c h1out9 <-> 43
c h1r2t9 <-> 43
c h1out8 <-> 44
c h1r2t8 <-> 44
c h1out7 <-> 45
c h1r2t7 <-> 45
c h1out6 <-> 46
c h1r2t6 <-> 46
c h1out5 <-> 47
c h1r2t5 <-> 47
c h1out4 <-> 48
c h1r2t4 <-> 48
c h1out3 <-> 50
c h1r2t3 <-> 50
c h1out2 <-> 52
c h1r2t2 <-> 52
c h1out1 <-> 58
c h1r2t1 <-> 58
c h1out0 <-> 68
c h1r2t0 <-> 68
c h1r1t24 <-> 78
c h1r1t23 <-> 79
c h1r1t22 <-> 80
c h1r1t21 <-> 81
c h1r1t20 <-> 82
c h1r1t19 <-> 83
c h1r1t18 <-> 84
c h1r1t17 <-> 85
c h1r1t16 <-> 86
c h1r1t15 <-> 87
c h1r1t14 <-> 88
c h1r1t13 <-> 89
c h1r1t12 <-> 90
c h1r1t11 <-> 91
c h1r1t10 <-> 92
c h1r1t9 <-> 93
c h1r1t8 <-> 94
c h1r1t7 <-> 95
c h1r1t6 <-> 96
c h1r1t5 <-> 97
c h1r1t4 <-> 98
c h1r1t3 <-> 108
c h1r1t2 <-> 110
c h1r1t1 <-> 112
c h1r1t0 <-> 118
c h1r0t24 <-> 128
c h1r0t23 <-> 129
c h1r0t22 <-> 130
c h1r0t21 <-> 131
c h1r0t20 <-> 132
c h1r0t19 <-> 133
c h1r0t18 <-> 134
c h1r0t17 <-> 135
c h1r0t16 <-> 136
c h1r0t15 <-> 137
c h1r0t14 <-> 138
c h1r0t13 <-> 139
c h1r0t12 <-> 140
c h1r0t11 <-> 141
c h1r0t10 <-> 142
c h1r0t9 <-> 143
c h1r0t8 <-> 144
c h1r0t7 <-> 145
c h1r0t6 <-> 146
c h1r0t5 <-> 147
c h1r0t4 <-> 148
c h1r0t3 <-> 158
c h1r0t2 <-> 160
c h1in23 <-> 162
c h1in18 <-> 163
c h1in13 <-> 164
c h1in8 <-> 165
c h1in3 <-> 166
c h1r0t1 <-> 167
c h1in22 <-> 171
c h1in17 <-> 172
c h1in12 <-> 174
c h1in7 <-> 176
c h1in2 <-> 177
c h1in20 <-> 178
c h1in15 <-> 179
c h1in10 <-> 180
c h1in5 <-> 181
c h1r0t0 <-> 182
c h1in21 <-> 186
c h1in16 <-> 187
c h1in11 <-> 189
c h1in6 <-> 191
c h1in1 <-> 192
c h1in24 <-> 195
c h1in19 <-> 196
c h1in14 <-> 198
c h1in9 <-> 200
c h1in4 <-> 201
c h1in0 <-> 202
p cnf 202 728
1 0
-2 3 0
-2 4 0
-2 5 0
-2 6 0
-2 7 0
-2 8 0
-2 9 0
-2 10 0
-2 11 0
-2 12 0
-2 13 0
-2 14 0
-2 15 0
-2 16 0
-2 17 0
-2 18 0
-2 19 0
-2 20 0
-2 21 0
-2 22 0
-2 23 0
-2 24 0
-2 25 0
-2 26 0
-2 27 0
2 -27 -26 -25 -24 -23 -22 -21 -20 -19 -18 -17 -16 -15 -14 -13 -12 -11 -10 -9 -8 -7 -6 -5 -4 -3 0
-2 0
3 195 28 0
3 -195 -28 0
-3 195 -28 0
-3 -195 28 0
4 162 29 0
4 -162 -29 0
-4 162 -29 0
-4 -162 29 0
5 171 30 0
5 -171 -30 0
-5 171 -30 0
-5 -171 30 0
6 186 31 0
6 -186 -31 0
-6 186 -31 0
-6 -186 31 0
7 178 32 0
7 -178 -32 0
-7 178 -32 0
-7 -178 32 0
8 196 33 0
8 -196 -33 0
-8 196 -33 0
-8 -196 33 0
9 163 34 0
9 -163 -34 0
-9 163 -34 0
-9 -163 34 0
10 172 35 0
10 -172 -35 0
-10 172 -35 0
-10 -172 35 0
11 187 36 0
11 -187 -36 0
-11 187 -36 0
-11 -187 36 0
12 179 37 0
12 -179 -37 0
-12 179 -37 0
-12 -179 37 0
13 198 38 0
13 -198 -38 0
-13 198 -38 0
-13 -198 38 0
14 164 39 0
14 -164 -39 0
-14 164 -39 0
-14 -164 39 0
15 174 40 0
15 -174 -40 0
-15 174 -40 0
-15 -174 40 0
16 189 41 0
16 -189 -41 0
-16 189 -41 0
-16 -189 41 0
17 180 42 0
17 -180 -42 0
-17 180 -42 0
-17 -180 42 0
18 200 43 0
18 -200 -43 0
-18 200 -43 0
-18 -200 43 0
19 165 44 0
19 -165 -44 0
-19 165 -44 0
-19 -165 44 0
20 176 45 0
20 -176 -45 0
-20 176 -45 0
-20 -176 45 0
21 191 46 0
21 -191 -46 0
-21 191 -46 0
-21 -191 46 0
22 181 47 0
22 -181 -47 0
-22 181 -47 0
-22 -181 47 0
23 201 48 0
23 -201 -48 0
-23 201 -48 0
-23 -201 48 0
24 166 50 0
24 -166 -50 0
-24 166 -50 0
-24 -166 50 0
25 177 52 0
25 -177 -52 0
-25 177 -52 0
-25 -177 52 0
26 192 58 0
26 -192 -58 0
-26 192 -58 0
-26 -192 58 0
27 202 68 0
27 -202 -68 0
-27 202 -68 0
-27 -202 68 0
28 78 -49 0
28 -78 49 0
-28 78 49 0
-28 -78 -49 0
29 79 -51 0
29 -79 51 0
-29 79 51 0
-29 -79 -51 0
30 80 -53 0
30 -80 53 0
-30 80 53 0
-30 -80 -53 0
31 81 -59 0
31 -81 59 0
-31 81 59 0
-31 -81 -59 0
32 82 -69 0
32 -82 69 0
-32 82 69 0
-32 -82 -69 0
33 83 -49 0
33 -83 49 0
-33 83 49 0
-33 -83 -49 0
34 84 -51 0
34 -84 51 0
-34 84 51 0
-34 -84 -51 0
35 85 -53 0
35 -85 53 0
-35 85 53 0
-35 -85 -53 0
36 86 -59 0
36 -86 59 0
-36 86 59 0
-36 -86 -59 0
37 87 -69 0
37 -87 69 0
-37 87 69 0
-37 -87 -69 0
38 88 -49 0
38 -88 49 0
-38 88 49 0
-38 -88 -49 0
39 89 -51 0
39 -89 51 0
-39 89 51 0
-39 -89 -51 0
40 90 -53 0
40 -90 53 0
-40 90 53 0
-40 -90 -53 0
41 91 -59 0
41 -91 59 0
-41 91 59 0
-41 -91 -59 0
42 92 -69 0
42 -92 69 0
-42 92 69 0
-42 -92 -69 0
43 93 -49 0
43 -93 49 0
-43 93 49 0
-43 -93 -49 0
44 94 -51 0
44 -94 51 0
-44 94 51 0
-44 -94 -51 0
45 95 -53 0
45 -95 53 0
-45 95 53 0
-45 -95 -53 0
46 96 -59 0
46 -96 59 0
-46 96 59 0
-46 -96 -59 0
47 97 -69 0
47 -97 69 0
-47 97 69 0
-47 -97 -69 0
48 98 -49 0
48 -98 49 0
-48 98 49 0
-48 -98 -49 0
49 64 -54 0
49 -64 54 0
-49 64 54 0
-49 -64 -54 0
50 108 -51 0
50 -108 51 0
-50 108 51 0
-50 -108 -51 0
51 74 -60 0
51 -74 60 0
-51 74 60 0
-51 -74 -60 0
52 110 -53 0
52 -110 53 0
-52 110 53 0
-52 -110 -53 0
53 70 -54 0
53 -70 54 0
-53 70 54 0
-53 -70 -54 0
54 56 -55 0
54 -56 55 0
-54 56 55 0
-54 -56 -55 0
55 84 -79 0
55 -84 79 0
-55 84 79 0
-55 -84 -79 0
56 89 -57 0
56 -89 57 0
-56 89 57 0
-56 -89 -57 0
57 108 -94 0
57 -108 94 0
-57 108 94 0
-57 -108 -94 0
58 112 -59 0
58 -112 59 0
-58 112 59 0
-58 -112 -59 0
59 64 -60 0
59 -64 60 0
-59 64 60 0
-59 -64 -60 0
60 62 -61 0
60 -62 61 0
-60 62 61 0
-60 -62 -61 0
61 85 -80 0
61 -85 80 0
-61 85 80 0
-61 -85 -80 0
62 90 -63 0
62 -90 63 0
-62 90 63 0
-62 -90 -63 0
63 110 -95 0
63 -110 95 0
-63 110 95 0
-63 -110 -95 0
64 66 -65 0
64 -66 65 0
-64 66 65 0
-64 -66 -65 0
65 87 -82 0
65 -87 82 0
-65 87 82 0
-65 -87 -82 0
66 92 -67 0
66 -92 67 0
-66 92 67 0
-66 -92 -67 0
67 118 -97 0
67 -118 97 0
-67 118 97 0
-67 -118 -97 0
68 118 -69 0
68 -118 69 0
-68 118 69 0
-68 -118 -69 0
69 74 -70 0
69 -74 70 0
-69 74 70 0
-69 -74 -70 0
70 72 -71 0
70 -72 71 0
-70 72 71 0
-70 -72 -71 0
71 86 -81 0
71 -86 81 0
-71 86 81 0
-71 -86 -81 0
72 91 -73 0
72 -91 73 0
-72 91 73 0
-72 -91 -73 0
73 112 -96 0
73 -112 96 0
-73 112 96 0
-73 -112 -96 0
74 76 -75 0
74 -76 75 0
-74 76 75 0
-74 -76 -75 0
75 83 -78 0
75 -83 78 0
-75 83 78 0
-75 -83 -78 0
76 88 -77 0
76 -88 77 0
-76 88 77 0
-76 -88 -77 0
77 98 -93 0
77 -98 93 0
-77 98 93 0
-77 -98 -93 0
78 128 -99 0
78 -128 99 0
-78 128 99 0
-78 -128 -99 0
79 129 -109 0
79 -129 109 0
-79 129 109 0
-79 -129 -109 0
80 130 -111 0
80 -130 111 0
-80 130 111 0
-80 -130 -111 0
81 131 -113 0
81 -131 113 0
-81 131 113 0
-81 -131 -113 0
82 132 -119 0
82 -132 119 0
-82 132 119 0
-82 -132 -119 0
83 133 -99 0
83 -133 99 0
-83 133 99 0
-83 -133 -99 0
84 134 -109 0
84 -134 109 0
-84 134 109 0
-84 -134 -109 0
85 135 -111 0
85 -135 111 0
-85 135 111 0
-85 -135 -111 0
86 136 -113 0
86 -136 113 0
-86 136 113 0
-86 -136 -113 0
87 137 -119 0
87 -137 119 0
-87 137 119 0
-87 -137 -119 0
88 138 -99 0
88 -138 99 0
-88 138 99 0
-88 -138 -99 0
89 139 -109 0
89 -139 109 0
-89 139 109 0
-89 -139 -109 0
90 140 -111 0
90 -140 111 0
-90 140 111 0
-90 -140 -111 0
91 141 -113 0
91 -141 113 0
-91 141 113 0
-91 -141 -113 0
92 142 -119 0
92 -142 119 0
-92 142 119 0
-92 -142 -119 0
93 143 -99 0
93 -143 99 0
-93 143 99 0
-93 -143 -99 0
94 144 -109 0
94 -144 109 0
-94 144 109 0
-94 -144 -109 0
95 145 -111 0
95 -145 111 0
-95 145 111 0
-95 -145 -111 0
96 146 -113 0
96 -146 113 0
-96 146 113 0
-96 -146 -113 0
97 147 -119 0
97 -147 119 0
-97 147 119 0
-97 -147 -119 0
98 148 -99 0
98 -148 99 0
-98 148 99 0
-98 -148 -99 0
99 104 -100 0
99 -104 100 0
-99 104 100 0
-99 -104 -100 0
100 102 -101 0
100 -102 101 0
-100 102 101 0
-100 -102 -101 0
101 137 -132 0
101 -137 132 0
-101 137 132 0
-101 -137 -132 0
102 142 -103 0
102 -142 103 0
-102 142 103 0
-102 -142 -103 0
103 182 -147 0
103 -182 147 0
-103 182 147 0
-103 -182 -147 0
104 106 -105 0
104 -106 105 0
-104 106 105 0
-104 -106 -105 0
105 134 -129 0
105 -134 129 0
-105 134 129 0
-105 -134 -129 0
106 139 -107 0
106 -139 107 0
-106 139 107 0
-106 -139 -107 0
107 158 -144 0
107 -158 144 0
-107 158 144 0
-107 -158 -144 0
108 158 -109 0
108 -158 109 0
-108 158 109 0
-108 -158 -109 0
109 124 -114 0
109 -124 114 0
-109 124 114 0
-109 -124 -114 0
110 160 -111 0
110 -160 111 0
-110 160 111 0
-110 -160 -111 0
111 120 -104 0
111 -120 104 0
-111 120 104 0
-111 -120 -104 0
112 167 -113 0
112 -167 113 0
-112 167 113 0
-112 -167 -113 0
113 114 -100 0
113 -114 100 0
-113 114 100 0
-113 -114 -100 0
114 116 -115 0
114 -116 115 0
-114 116 115 0
-114 -116 -115 0
115 135 -130 0
115 -135 130 0
-115 135 130 0
-115 -135 -130 0
116 140 -117 0
116 -140 117 0
-116 140 117 0
-116 -140 -117 0
117 160 -145 0
117 -160 145 0
-117 160 145 0
-117 -160 -145 0
118 182 -119 0
118 -182 119 0
-118 182 119 0
-118 -182 -119 0
119 124 -120 0
119 -124 120 0
-119 124 120 0
-119 -124 -120 0
120 122 -121 0
120 -122 121 0
-120 122 121 0
-120 -122 -121 0
121 136 -131 0
121 -136 131 0
-121 136 131 0
-121 -136 -131 0
122 141 -123 0
122 -141 123 0
-122 141 123 0
-122 -141 -123 0
123 167 -146 0
123 -167 146 0
-123 167 146 0
-123 -167 -146 0
124 126 -125 0
124 -126 125 0
-124 126 125 0
-124 -126 -125 0
125 133 -128 0
125 -133 128 0
-125 133 128 0
-125 -133 -128 0
126 138 -127 0
126 -138 127 0
-126 138 127 0
-126 -138 -127 0
127 148 -143 0
127 -148 143 0
-127 148 143 0
-127 -148 -143 0
128 195 -149 0
128 -195 149 0
-128 195 149 0
-128 -195 -149 0
129 162 -159 0
129 -162 159 0
-129 162 159 0
-129 -162 -159 0
130 171 -161 0
130 -171 161 0
-130 171 161 0
-130 -171 -161 0
131 186 -168 0
131 -186 168 0
-131 186 168 0
-131 -186 -168 0
132 183 -178 0
132 -183 178 0
-132 183 178 0
-132 -183 -178 0
133 196 -149 0
133 -196 149 0
-133 196 149 0
-133 -196 -149 0
134 163 -159 0
134 -163 159 0
-134 163 159 0
-134 -163 -159 0
135 172 -161 0
135 -172 161 0
-135 172 161 0
-135 -172 -161 0
136 187 -168 0
136 -187 168 0
-136 187 168 0
-136 -187 -168 0
137 183 -179 0
137 -183 179 0
-137 183 179 0
-137 -183 -179 0
138 198 -149 0
138 -198 149 0
-138 198 149 0
-138 -198 -149 0
139 164 -159 0
139 -164 159 0
-139 164 159 0
-139 -164 -159 0
140 174 -161 0
140 -174 161 0
-140 174 161 0
-140 -174 -161 0
141 189 -168 0
141 -189 168 0
-141 189 168 0
-141 -189 -168 0
142 183 -180 0
142 -183 180 0
-142 183 180 0
-142 -183 -180 0
143 200 -149 0
143 -200 149 0
-143 200 149 0
-143 -200 -149 0
144 165 -159 0
144 -165 159 0
-144 165 159 0
-144 -165 -159 0
145 176 -161 0
145 -176 161 0
-145 176 161 0
-145 -176 -161 0
146 191 -168 0
146 -191 168 0
-146 191 168 0
-146 -191 -168 0
147 183 -181 0
147 -183 181 0
-147 183 181 0
-147 -183 -181 0
148 201 -149 0
148 -201 149 0
-148 201 149 0
-148 -201 -149 0
149 154 -150 0
149 -154 150 0
-149 154 150 0
-149 -154 -150 0
150 152 -151 0
150 -152 151 0
-150 152 151 0
-150 -152 -151 0
151 179 -178 0
151 -179 178 0
-151 179 178 0
-151 -179 -178 0
152 180 -153 0
152 -180 153 0
-152 180 153 0
-152 -180 -153 0
153 202 -181 0
153 -202 181 0
-153 202 181 0
-153 -202 -181 0
154 156 -155 0
154 -156 155 0
-154 156 155 0
-154 -156 -155 0
155 163 -162 0
155 -163 162 0
-155 163 162 0
-155 -163 -162 0
156 164 -157 0
156 -164 157 0
-156 164 157 0
-156 -164 -157 0
157 166 -165 0
157 -166 165 0
-157 166 165 0
-157 -166 -165 0
158 166 -159 0
158 -166 159 0
-158 166 159 0
-158 -166 -159 0
159 193 -169 0
159 -193 169 0
-159 193 169 0
-159 -193 -169 0
160 177 -161 0
160 -177 161 0
-160 177 161 0
-160 -177 -161 0
161 184 -154 0
161 -184 154 0
-161 184 154 0
-161 -184 -154 0
167 192 -168 0
167 -192 168 0
-167 192 168 0
-167 -192 -168 0
168 169 -150 0
168 -169 150 0
-168 169 150 0
-168 -169 -150 0
169 173 -170 0
169 -173 170 0
-169 173 170 0
-169 -173 -170 0
170 172 -171 0
170 -172 171 0
-170 172 171 0
-170 -172 -171 0
173 175 -174 0
173 -175 174 0
-173 175 174 0
-173 -175 -174 0
175 177 -176 0
175 -177 176 0
-175 177 176 0
-175 -177 -176 0
182 202 -183 0
182 -202 183 0
-182 202 183 0
-182 -202 -183 0
183 193 -184 0
183 -193 184 0
-183 193 184 0
-183 -193 -184 0
184 188 -185 0
184 -188 185 0
-184 188 185 0
-184 -188 -185 0
185 187 -186 0
185 -187 186 0
-185 187 186 0
-185 -187 -186 0
188 190 -189 0
188 -190 189 0
-188 190 189 0
-188 -190 -189 0
190 192 -191 0
190 -192 191 0
-190 192 191 0
-190 -192 -191 0
193 197 -194 0
193 -197 194 0
-193 197 194 0
-193 -197 -194 0
194 196 -195 0
194 -196 195 0
-194 196 195 0
-194 -196 -195 0
197 199 -198 0
197 -199 198 0
-197 199 198 0
-197 -199 -198 0
199 201 -200 0
199 -201 200 0
-199 201 200 0
-199 -201 -200 0
